param n := 2;

param m := 2;

param K := 500;

param a :=
1 	 0.519012
2 	 0.770884
;
 param A :=
[1, *, *]:  1	2	:=
1	0.137716	-0.314622	
2	-0.068580	-0.863581	

[2, *, *]:  1	2	:=
1	-0.244152	0.965634	
2	-0.840748	-0.636774	
;